instances/p2/p2_4_20-3.dzn
Alphabet = {A,C,G,T};
ns = 4;
nc = 14;
neighbours = [| I(A),I(C),I(T),I(C),I(A),I(A),I(C),I(A),I(G),I(A),I(T),Null,Null,Null | I(C),I(C),I(G),I(A),I(G),I(C),I(G),I(T),I(G),I(G),I(T),I(G),I(A),I(G) | I(C),I(T),I(G),I(T),I(T),I(A),I(T),I(G),I(C),Null,Null,Null,Null,Null | I(A),I(G),I(A),I(A),I(T),Null,Null,Null,Null,Null,Null,Null,Null,Null |];
