instances/p2/p2_4_20-3.txt
{
	"num_strings": 4,
	"alphabet": "ACGT",
	"strings": [
		"ACTCAACAGAT",
		"CCGAGCGTGGTGAG",
		"CTGTTATGC",
		"AGAAT"
	],
	"str_length":[11,14,9,5]
}